Features/ForMiniZinc/benchmark_puzzles/benchmarks4x4/95/puzzle9.dzn
S = 4;
start = [|0,0,0,0,0,0,0,0,0,0,0,0,0,0,0,0|
0,0,13,0,0,0,0,0,0,0,0,0,0,0,0,0|
0,0,0,0,0,0,0,0,0,0,0,0,0,0,0,0|
0,0,0,16,0,0,0,0,0,0,0,0,0,0,0,0|
0,0,0,0,0,0,0,0,0,0,0,0,0,0,12,0|
0,0,0,0,0,0,0,0,0,0,0,0,0,0,0,0|
0,0,0,0,0,0,0,0,0,0,0,0,0,0,0,0|
0,0,0,0,0,0,0,0,6,10,0,0,0,0,0,0|
0,0,0,0,0,0,0,0,0,0,0,0,0,0,0,0|
0,0,0,0,0,0,0,0,0,0,0,0,0,0,0,0|
0,0,0,0,0,1,0,0,0,0,0,0,0,0,0,0|
0,0,0,0,0,0,0,2,0,0,0,0,0,0,0,0|
0,0,0,0,0,0,0,0,0,5,0,0,0,0,0,0|
0,0,0,0,14,0,0,0,0,0,0,0,0,0,0,0|
0,0,0,0,0,0,0,0,0,0,0,0,0,0,0,0|
0,12,0,5,0,0,0,0,0,0,0,0,0,0,0,0|];